data/lp_files/pEFS/59_0.lp
\ Model foo
\ LP format - for model browsing. Use MPS format to capture full model detail.
Minimize
  z
Subject To
 allocateEach[1]: x[1,1] + x[2,1] + x[3,1] = 1
 allocateEach[2]: x[1,2] + x[2,2] + x[3,2] = 1
 allocateEach[3]: x[1,3] + x[2,3] + x[3,3] = 1
 allocateEach[4]: x[1,4] + x[2,4] + x[3,4] = 1
 allocateEach[5]: x[1,5] + x[2,5] + x[3,5] = 1
 allocateEach[6]: x[1,6] + x[2,6] + x[3,6] = 1
 allocateEach[7]: x[1,7] + x[2,7] + x[3,7] = 1
 allocateEach[8]: x[1,8] + x[2,8] + x[3,8] = 1
 allocateEach[9]: x[1,9] + x[2,9] + x[3,9] = 1
 allocateEach[10]: x[1,10] + x[2,10] + x[3,10] = 1
 allocateEach[11]: x[1,11] + x[2,11] + x[3,11] = 1
 allocateEach[12]: x[1,12] + x[2,12] + x[3,12] = 1
 allocateEach[13]: x[1,13] + x[2,13] + x[3,13] = 1
 allocateEach[14]: x[1,14] + x[2,14] + x[3,14] = 1
 allocateEach[15]: x[1,15] + x[2,15] + x[3,15] = 1
 allocateEach[16]: x[1,16] + x[2,16] + x[3,16] = 1
 allocateEach[17]: x[1,17] + x[2,17] + x[3,17] = 1
 allocateEach[18]: x[1,18] + x[2,18] + x[3,18] = 1
 allocateEach[19]: x[1,19] + x[2,19] + x[3,19] = 1
 allocateAllCash: cashProportion[1] + cashProportion[2] + cashProportion[3]
   = 1
 findWorstP[1,2]: z + 0.00474059466019417 cashProportion[1]
   - 0.00474059466019417 cashProportion[2] + 0.0892559162621359 x[1,1]
   + 0.0922045661407767 x[1,2] + 0.0238831158980583 x[1,3]
   + 0.0621207524271845 x[1,4] + 0.0168385922330097 x[1,5]
   + 0.0862029733009709 x[1,6] + 0.0681602700242718 x[1,7]
   + 0.0755555976941748 x[1,8] + 0.00157387742718447 x[1,9]
   + 0.0746643658980582 x[1,10] + 0.0046363015776699 x[1,11]
   + 0.0851884860436893 x[1,12] + 0.000199105 x[1,13]
   + 0.0324446298543689 x[1,14] + 0.0620543841019417 x[1,15]
   + 0.0286995600728155 x[1,16] + 0.0250777457524272 x[1,17]
   + 0.0894739836165048 x[1,18] + 0.0770251820388349 x[1,19]
   - 0.0892559162621359 x[2,1] - 0.0922045661407767 x[2,2]
   - 0.0238831158980583 x[2,3] - 0.0621207524271845 x[2,4]
   - 0.0168385922330097 x[2,5] - 0.0862029733009709 x[2,6]
   - 0.0681602700242718 x[2,7] - 0.0755555976941748 x[2,8]
   - 0.00157387742718447 x[2,9] - 0.0746643658980582 x[2,10]
   - 0.0046363015776699 x[2,11] - 0.0851884860436893 x[2,12]
   - 0.000199105 x[2,13] - 0.0324446298543689 x[2,14]
   - 0.0620543841019417 x[2,15] - 0.0286995600728155 x[2,16]
   - 0.0250777457524272 x[2,17] - 0.0894739836165048 x[2,18]
   - 0.0770251820388349 x[2,19] >= 0
 findWorstP[1,3]: z + 0.00474059466019417 cashProportion[1]
   - 0.00474059466019417 cashProportion[3] + 0.0892559162621359 x[1,1]
   + 0.0922045661407767 x[1,2] + 0.0238831158980583 x[1,3]
   + 0.0621207524271845 x[1,4] + 0.0168385922330097 x[1,5]
   + 0.0862029733009709 x[1,6] + 0.0681602700242718 x[1,7]
   + 0.0755555976941748 x[1,8] + 0.00157387742718447 x[1,9]
   + 0.0746643658980582 x[1,10] + 0.0046363015776699 x[1,11]
   + 0.0851884860436893 x[1,12] + 0.000199105 x[1,13]
   + 0.0324446298543689 x[1,14] + 0.0620543841019417 x[1,15]
   + 0.0286995600728155 x[1,16] + 0.0250777457524272 x[1,17]
   + 0.0894739836165048 x[1,18] + 0.0770251820388349 x[1,19]
   - 0.0892559162621359 x[3,1] - 0.0922045661407767 x[3,2]
   - 0.0238831158980583 x[3,3] - 0.0621207524271845 x[3,4]
   - 0.0168385922330097 x[3,5] - 0.0862029733009709 x[3,6]
   - 0.0681602700242718 x[3,7] - 0.0755555976941748 x[3,8]
   - 0.00157387742718447 x[3,9] - 0.0746643658980582 x[3,10]
   - 0.0046363015776699 x[3,11] - 0.0851884860436893 x[3,12]
   - 0.000199105 x[3,13] - 0.0324446298543689 x[3,14]
   - 0.0620543841019417 x[3,15] - 0.0286995600728155 x[3,16]
   - 0.0250777457524272 x[3,17] - 0.0894739836165048 x[3,18]
   - 0.0770251820388349 x[3,19] >= 0
 findWorstP[2,1]: z - 0.00698733894183739 cashProportion[1]
   + 0.00698733894183739 cashProportion[2] - 0.00658207328321082 x[1,1]
   - 0.00405265658626569 x[1,2] - 0.1128455239106739 x[1,3]
   - 0.1306213141787082 x[1,4] - 0.0507560300735068 x[1,5]
   - 0.066645238827245 x[1,6] - 0.0873836608066184 x[1,7]
   - 0.0194527516140753 x[1,8] - 0.103258894882473 x[1,9]
   - 0.0139886525615585 x[1,10] - 0.0318203415411275 x[1,11]
   - 0.00846865479750692 x[1,12] - 0.0245115850079656 x[1,13]
   - 0.09126862125828 x[1,14] - 0.0497358785879985 x[1,15]
   - 0.0191872327342855 x[1,16] - 0.0594622543950362 x[1,17]
   - 0.0867967243355041 x[1,18] - 0.0261745716761229 x[1,19]
   + 0.00658207328321082 x[2,1] + 0.00405265658626569 x[2,2]
   + 0.1128455239106739 x[2,3] + 0.1306213141787082 x[2,4]
   + 0.0507560300735068 x[2,5] + 0.066645238827245 x[2,6]
   + 0.0873836608066184 x[2,7] + 0.0194527516140753 x[2,8]
   + 0.103258894882473 x[2,9] + 0.0139886525615585 x[2,10]
   + 0.0318203415411275 x[2,11] + 0.00846865479750692 x[2,12]
   + 0.0245115850079656 x[2,13] + 0.09126862125828 x[2,14]
   + 0.0497358785879985 x[2,15] + 0.0191872327342855 x[2,16]
   + 0.0594622543950362 x[2,17] + 0.0867967243355041 x[2,18]
   + 0.0261745716761229 x[2,19] >= 0
 findWorstP[2,3]: z + 0.00698733894183739 cashProportion[2]
   - 0.00698733894183739 cashProportion[3] + 0.00658207328321082 x[2,1]
   + 0.00405265658626569 x[2,2] + 0.1128455239106739 x[2,3]
   + 0.1306213141787082 x[2,4] + 0.0507560300735068 x[2,5]
   + 0.066645238827245 x[2,6] + 0.0873836608066184 x[2,7]
   + 0.0194527516140753 x[2,8] + 0.103258894882473 x[2,9]
   + 0.0139886525615585 x[2,10] + 0.0318203415411275 x[2,11]
   + 0.00846865479750692 x[2,12] + 0.0245115850079656 x[2,13]
   + 0.09126862125828 x[2,14] + 0.0497358785879985 x[2,15]
   + 0.0191872327342855 x[2,16] + 0.0594622543950362 x[2,17]
   + 0.0867967243355041 x[2,18] + 0.0261745716761229 x[2,19]
   - 0.00658207328321082 x[3,1] - 0.00405265658626569 x[3,2]
   - 0.1128455239106739 x[3,3] - 0.1306213141787082 x[3,4]
   - 0.0507560300735068 x[3,5] - 0.066645238827245 x[3,6]
   - 0.0873836608066184 x[3,7] - 0.0194527516140753 x[3,8]
   - 0.103258894882473 x[3,9] - 0.0139886525615585 x[3,10]
   - 0.0318203415411275 x[3,11] - 0.00846865479750692 x[3,12]
   - 0.0245115850079656 x[3,13] - 0.09126862125828 x[3,14]
   - 0.0497358785879985 x[3,15] - 0.0191872327342855 x[3,16]
   - 0.0594622543950362 x[3,17] - 0.0867967243355041 x[3,18]
   - 0.0261745716761229 x[3,19] >= 0
 findWorstP[3,1]: z - 0.00375648933532678 cashProportion[1]
   + 0.00375648933532678 cashProportion[3] - 0.0304726414881708 x[1,1]
   - 0.0210288272991593 x[1,2] - 0.00489094911459547 x[1,3]
   - 0.0605546080854677 x[1,4] - 0.0533120966469576 x[1,5]
   - 0.0616590159500537 x[1,6] - 0.0492250362501221 x[1,7]
   - 0.0565501904540093 x[1,8] - 0.0622525412650354 x[1,9]
   - 0.0402169748240085 x[1,10] - 0.043349886929671 x[1,11]
   - 0.0661066993230806 x[1,12] - 0.0717113814113882 x[1,13]
   - 0.0702313246132694 x[1,14] - 0.0717113814113882 x[1,15]
   - 0.0714859920512686 x[1,16] - 0.0413739735392891 x[1,17]
   - 0.069720442063665 x[1,18] - 0.0503895479440734 x[1,19]
   + 0.0304726414881708 x[3,1] + 0.0210288272991593 x[3,2]
   + 0.00489094911459547 x[3,3] + 0.0605546080854677 x[3,4]
   + 0.0533120966469576 x[3,5] + 0.0616590159500537 x[3,6]
   + 0.0492250362501221 x[3,7] + 0.0565501904540093 x[3,8]
   + 0.0622525412650354 x[3,9] + 0.0402169748240085 x[3,10]
   + 0.043349886929671 x[3,11] + 0.0661066993230806 x[3,12]
   + 0.0717113814113882 x[3,13] + 0.0702313246132694 x[3,14]
   + 0.0717113814113882 x[3,15] + 0.0714859920512686 x[3,16]
   + 0.0413739735392891 x[3,17] + 0.069720442063665 x[3,18]
   + 0.0503895479440734 x[3,19] >= 0
 findWorstP[3,2]: z - 0.00375648933532678 cashProportion[2]
   + 0.00375648933532678 cashProportion[3] - 0.0304726414881708 x[2,1]
   - 0.0210288272991593 x[2,2] - 0.00489094911459547 x[2,3]
   - 0.0605546080854677 x[2,4] - 0.0533120966469576 x[2,5]
   - 0.0616590159500537 x[2,6] - 0.0492250362501221 x[2,7]
   - 0.0565501904540093 x[2,8] - 0.0622525412650354 x[2,9]
   - 0.0402169748240085 x[2,10] - 0.043349886929671 x[2,11]
   - 0.0661066993230806 x[2,12] - 0.0717113814113882 x[2,13]
   - 0.0702313246132694 x[2,14] - 0.0717113814113882 x[2,15]
   - 0.0714859920512686 x[2,16] - 0.0413739735392891 x[2,17]
   - 0.069720442063665 x[2,18] - 0.0503895479440734 x[2,19]
   + 0.0304726414881708 x[3,1] + 0.0210288272991593 x[3,2]
   + 0.00489094911459547 x[3,3] + 0.0605546080854677 x[3,4]
   + 0.0533120966469576 x[3,5] + 0.0616590159500537 x[3,6]
   + 0.0492250362501221 x[3,7] + 0.0565501904540093 x[3,8]
   + 0.0622525412650354 x[3,9] + 0.0402169748240085 x[3,10]
   + 0.043349886929671 x[3,11] + 0.0661066993230806 x[3,12]
   + 0.0717113814113882 x[3,13] + 0.0702313246132694 x[3,14]
   + 0.0717113814113882 x[3,15] + 0.0714859920512686 x[3,16]
   + 0.0413739735392891 x[3,17] + 0.069720442063665 x[3,18]
   + 0.0503895479440734 x[3,19] >= 0
Bounds
 z <= 1
 -infinity <= cashProportion[1] <= 1
 -infinity <= cashProportion[2] <= 1
 -infinity <= cashProportion[3] <= 1
Binaries
 x[1,1] x[1,2] x[1,3] x[1,4] x[1,5] x[1,6] x[1,7] x[1,8] x[1,9] x[1,10]
 x[1,11] x[1,12] x[1,13] x[1,14] x[1,15] x[1,16] x[1,17] x[1,18] x[1,19]
 x[2,1] x[2,2] x[2,3] x[2,4] x[2,5] x[2,6] x[2,7] x[2,8] x[2,9] x[2,10]
 x[2,11] x[2,12] x[2,13] x[2,14] x[2,15] x[2,16] x[2,17] x[2,18] x[2,19]
 x[3,1] x[3,2] x[3,3] x[3,4] x[3,5] x[3,6] x[3,7] x[3,8] x[3,9] x[3,10]
 x[3,11] x[3,12] x[3,13] x[3,14] x[3,15] x[3,16] x[3,17] x[3,18] x[3,19]
End
