data/mps_files/q3/59_0.mps
NAME foo
ROWS
 N  OBJ
 E  allocateEach[1]
 E  allocateEach[2]
 E  allocateEach[3]
 E  allocateEach[4]
 E  allocateEach[5]
 E  allocateEach[6]
 E  allocateEach[7]
 E  allocateEach[8]
 E  allocateEach[9]
 E  allocateEach[10]
 E  allocateEach[11]
 E  allocateEach[12]
 E  allocateEach[13]
 E  allocateEach[14]
 E  allocateEach[15]
 E  allocateEach[16]
 E  allocateEach[17]
 E  allocateEach[18]
 E  allocateEach[19]
 E  allocateAllCash
 G  findWorstP[1,2]
 G  findWorstP[1,3]
 G  findWorstP[2,1]
 G  findWorstP[2,3]
 G  findWorstP[3,1]
 G  findWorstP[3,2]
COLUMNS
    z         OBJ       1
    z         findWorstP[1,2]  1
    z         findWorstP[1,3]  1
    z         findWorstP[2,1]  1
    z         findWorstP[2,3]  1
    z         findWorstP[3,1]  1
    z         findWorstP[3,2]  1
    cashProportion[1]  allocateAllCash  1
    cashProportion[1]  findWorstP[1,2]  4.7405946601941744e-03
    cashProportion[1]  findWorstP[1,3]  4.7405946601941744e-03
    cashProportion[1]  findWorstP[2,1]  -6.9873389418373920e-03
    cashProportion[1]  findWorstP[3,1]  -3.7564893353267781e-03
    cashProportion[2]  allocateAllCash  1
    cashProportion[2]  findWorstP[1,2]  -4.7405946601941744e-03
    cashProportion[2]  findWorstP[2,1]  6.9873389418373920e-03
    cashProportion[2]  findWorstP[2,3]  6.9873389418373920e-03
    cashProportion[2]  findWorstP[3,2]  -3.7564893353267781e-03
    cashProportion[3]  allocateAllCash  1
    cashProportion[3]  findWorstP[1,3]  -4.7405946601941744e-03
    cashProportion[3]  findWorstP[2,3]  -6.9873389418373920e-03
    cashProportion[3]  findWorstP[3,1]  3.7564893353267781e-03
    cashProportion[3]  findWorstP[3,2]  3.7564893353267781e-03
    MARKER    'MARKER'                 'INTORG'
    x[1,1]    allocateEach[1]  1
    x[1,1]    findWorstP[1,2]  8.9255916262135915e-02
    x[1,1]    findWorstP[1,3]  8.9255916262135915e-02
    x[1,1]    findWorstP[2,1]  -6.5820732832108228e-03
    x[1,1]    findWorstP[3,1]  -3.0472641488170821e-02
    x[1,2]    allocateEach[2]  1
    x[1,2]    findWorstP[1,2]  0.0922045661407767
    x[1,2]    findWorstP[1,3]  0.0922045661407767
    x[1,2]    findWorstP[2,1]  -4.0526565862656870e-03
    x[1,2]    findWorstP[3,1]  -0.0210288272991593
    x[1,3]    allocateEach[3]  1
    x[1,3]    findWorstP[1,2]  2.3883115898058253e-02
    x[1,3]    findWorstP[1,3]  2.3883115898058253e-02
    x[1,3]    findWorstP[2,1]  -1.1284552391067387e-01
    x[1,3]    findWorstP[3,1]  -4.8909491145954654e-03
    x[1,4]    allocateEach[4]  1
    x[1,4]    findWorstP[1,2]  6.2120752427184463e-02
    x[1,4]    findWorstP[1,3]  6.2120752427184463e-02
    x[1,4]    findWorstP[2,1]  -1.3062131417870818e-01
    x[1,4]    findWorstP[3,1]  -6.0554608085467664e-02
    x[1,5]    allocateEach[5]  1
    x[1,5]    findWorstP[1,2]  1.6838592233009708e-02
    x[1,5]    findWorstP[1,3]  1.6838592233009708e-02
    x[1,5]    findWorstP[2,1]  -5.0756030073506812e-02
    x[1,5]    findWorstP[3,1]  -5.3312096646957630e-02
    x[1,6]    allocateEach[6]  1
    x[1,6]    findWorstP[1,2]  8.6202973300970862e-02
    x[1,6]    findWorstP[1,3]  8.6202973300970862e-02
    x[1,6]    findWorstP[2,1]  -6.6645238827245032e-02
    x[1,6]    findWorstP[3,1]  -6.1659015950053728e-02
    x[1,7]    allocateEach[7]  1
    x[1,7]    findWorstP[1,2]  6.8160270024271843e-02
    x[1,7]    findWorstP[1,3]  6.8160270024271843e-02
    x[1,7]    findWorstP[2,1]  -8.7383660806618413e-02
    x[1,7]    findWorstP[3,1]  -4.9225036250122096e-02
    x[1,8]    allocateEach[8]  1
    x[1,8]    findWorstP[1,2]  7.5555597694174761e-02
    x[1,8]    findWorstP[1,3]  7.5555597694174761e-02
    x[1,8]    findWorstP[2,1]  -1.9452751614075295e-02
    x[1,8]    findWorstP[3,1]  -5.6550190454009316e-02
    x[1,9]    allocateEach[9]  1
    x[1,9]    findWorstP[1,2]  1.5738774271844660e-03
    x[1,9]    findWorstP[1,3]  1.5738774271844660e-03
    x[1,9]    findWorstP[2,1]  -1.0325889488247297e-01
    x[1,9]    findWorstP[3,1]  -6.2252541265035363e-02
    x[1,10]   allocateEach[10]  1
    x[1,10]   findWorstP[1,2]  7.4664365898058249e-02
    x[1,10]   findWorstP[1,3]  7.4664365898058249e-02
    x[1,10]   findWorstP[2,1]  -1.3988652561558457e-02
    x[1,10]   findWorstP[3,1]  -4.0216974824008482e-02
    x[1,11]   allocateEach[11]  1
    x[1,11]   findWorstP[1,2]  4.6363015776699022e-03
    x[1,11]   findWorstP[1,3]  4.6363015776699022e-03
    x[1,11]   findWorstP[2,1]  -3.1820341541127485e-02
    x[1,11]   findWorstP[3,1]  -4.3349886929671011e-02
    x[1,12]   allocateEach[12]  1
    x[1,12]   findWorstP[1,2]  8.5188486043689310e-02
    x[1,12]   findWorstP[1,3]  8.5188486043689310e-02
    x[1,12]   findWorstP[2,1]  -8.4686547975069189e-03
    x[1,12]   findWorstP[3,1]  -6.6106699323080637e-02
    x[1,13]   allocateEach[13]  1
    x[1,13]   findWorstP[1,2]  1.9910497572815531e-04
    x[1,13]   findWorstP[1,3]  1.9910497572815531e-04
    x[1,13]   findWorstP[2,1]  -2.4511585007965568e-02
    x[1,13]   findWorstP[3,1]  -7.1711381411388192e-02
    x[1,14]   allocateEach[14]  1
    x[1,14]   findWorstP[1,2]  3.2444629854368932e-02
    x[1,14]   findWorstP[1,3]  3.2444629854368932e-02
    x[1,14]   findWorstP[2,1]  -0.09126862125828
    x[1,14]   findWorstP[3,1]  -7.0231324613269433e-02
    x[1,15]   allocateEach[15]  1
    x[1,15]   findWorstP[1,2]  6.2054384101941737e-02
    x[1,15]   findWorstP[1,3]  6.2054384101941737e-02
    x[1,15]   findWorstP[2,1]  -4.9735878587998550e-02
    x[1,15]   findWorstP[3,1]  -7.1711381411388192e-02
    x[1,16]   allocateEach[16]  1
    x[1,16]   findWorstP[1,2]  2.8699560072815534e-02
    x[1,16]   findWorstP[1,3]  2.8699560072815534e-02
    x[1,16]   findWorstP[2,1]  -1.9187232734285478e-02
    x[1,16]   findWorstP[3,1]  -7.1485992051268585e-02
    x[1,17]   allocateEach[17]  1
    x[1,17]   findWorstP[1,2]  2.5077745752427185e-02
    x[1,17]   findWorstP[1,3]  2.5077745752427185e-02
    x[1,17]   findWorstP[2,1]  -0.0594622543950362
    x[1,17]   findWorstP[3,1]  -4.1373973539289129e-02
    x[1,18]   allocateEach[18]  1
    x[1,18]   findWorstP[1,2]  8.9473983616504840e-02
    x[1,18]   findWorstP[1,3]  8.9473983616504840e-02
    x[1,18]   findWorstP[2,1]  -8.6796724335504075e-02
    x[1,18]   findWorstP[3,1]  -0.069720442063665
    x[1,19]   allocateEach[19]  1
    x[1,19]   findWorstP[1,2]  7.7025182038834947e-02
    x[1,19]   findWorstP[1,3]  7.7025182038834947e-02
    x[1,19]   findWorstP[2,1]  -2.6174571676122867e-02
    x[1,19]   findWorstP[3,1]  -5.0389547944073396e-02
    x[2,1]    allocateEach[1]  1
    x[2,1]    findWorstP[1,2]  -8.9255916262135915e-02
    x[2,1]    findWorstP[2,1]  6.5820732832108228e-03
    x[2,1]    findWorstP[2,3]  6.5820732832108228e-03
    x[2,1]    findWorstP[3,2]  -3.0472641488170821e-02
    x[2,2]    allocateEach[2]  1
    x[2,2]    findWorstP[1,2]  -0.0922045661407767
    x[2,2]    findWorstP[2,1]  4.0526565862656870e-03
    x[2,2]    findWorstP[2,3]  4.0526565862656870e-03
    x[2,2]    findWorstP[3,2]  -0.0210288272991593
    x[2,3]    allocateEach[3]  1
    x[2,3]    findWorstP[1,2]  -2.3883115898058253e-02
    x[2,3]    findWorstP[2,1]  1.1284552391067387e-01
    x[2,3]    findWorstP[2,3]  1.1284552391067387e-01
    x[2,3]    findWorstP[3,2]  -4.8909491145954654e-03
    x[2,4]    allocateEach[4]  1
    x[2,4]    findWorstP[1,2]  -6.2120752427184463e-02
    x[2,4]    findWorstP[2,1]  1.3062131417870818e-01
    x[2,4]    findWorstP[2,3]  1.3062131417870818e-01
    x[2,4]    findWorstP[3,2]  -6.0554608085467664e-02
    x[2,5]    allocateEach[5]  1
    x[2,5]    findWorstP[1,2]  -1.6838592233009708e-02
    x[2,5]    findWorstP[2,1]  5.0756030073506812e-02
    x[2,5]    findWorstP[2,3]  5.0756030073506812e-02
    x[2,5]    findWorstP[3,2]  -5.3312096646957630e-02
    x[2,6]    allocateEach[6]  1
    x[2,6]    findWorstP[1,2]  -8.6202973300970862e-02
    x[2,6]    findWorstP[2,1]  6.6645238827245032e-02
    x[2,6]    findWorstP[2,3]  6.6645238827245032e-02
    x[2,6]    findWorstP[3,2]  -6.1659015950053728e-02
    x[2,7]    allocateEach[7]  1
    x[2,7]    findWorstP[1,2]  -6.8160270024271843e-02
    x[2,7]    findWorstP[2,1]  8.7383660806618413e-02
    x[2,7]    findWorstP[2,3]  8.7383660806618413e-02
    x[2,7]    findWorstP[3,2]  -4.9225036250122096e-02
    x[2,8]    allocateEach[8]  1
    x[2,8]    findWorstP[1,2]  -7.5555597694174761e-02
    x[2,8]    findWorstP[2,1]  1.9452751614075295e-02
    x[2,8]    findWorstP[2,3]  1.9452751614075295e-02
    x[2,8]    findWorstP[3,2]  -5.6550190454009316e-02
    x[2,9]    allocateEach[9]  1
    x[2,9]    findWorstP[1,2]  -1.5738774271844660e-03
    x[2,9]    findWorstP[2,1]  1.0325889488247297e-01
    x[2,9]    findWorstP[2,3]  1.0325889488247297e-01
    x[2,9]    findWorstP[3,2]  -6.2252541265035363e-02
    x[2,10]   allocateEach[10]  1
    x[2,10]   findWorstP[1,2]  -7.4664365898058249e-02
    x[2,10]   findWorstP[2,1]  1.3988652561558457e-02
    x[2,10]   findWorstP[2,3]  1.3988652561558457e-02
    x[2,10]   findWorstP[3,2]  -4.0216974824008482e-02
    x[2,11]   allocateEach[11]  1
    x[2,11]   findWorstP[1,2]  -4.6363015776699022e-03
    x[2,11]   findWorstP[2,1]  3.1820341541127485e-02
    x[2,11]   findWorstP[2,3]  3.1820341541127485e-02
    x[2,11]   findWorstP[3,2]  -4.3349886929671011e-02
    x[2,12]   allocateEach[12]  1
    x[2,12]   findWorstP[1,2]  -8.5188486043689310e-02
    x[2,12]   findWorstP[2,1]  8.4686547975069189e-03
    x[2,12]   findWorstP[2,3]  8.4686547975069189e-03
    x[2,12]   findWorstP[3,2]  -6.6106699323080637e-02
    x[2,13]   allocateEach[13]  1
    x[2,13]   findWorstP[1,2]  -1.9910497572815531e-04
    x[2,13]   findWorstP[2,1]  2.4511585007965568e-02
    x[2,13]   findWorstP[2,3]  2.4511585007965568e-02
    x[2,13]   findWorstP[3,2]  -7.1711381411388192e-02
    x[2,14]   allocateEach[14]  1
    x[2,14]   findWorstP[1,2]  -3.2444629854368932e-02
    x[2,14]   findWorstP[2,1]  0.09126862125828
    x[2,14]   findWorstP[2,3]  0.09126862125828
    x[2,14]   findWorstP[3,2]  -7.0231324613269433e-02
    x[2,15]   allocateEach[15]  1
    x[2,15]   findWorstP[1,2]  -6.2054384101941737e-02
    x[2,15]   findWorstP[2,1]  4.9735878587998550e-02
    x[2,15]   findWorstP[2,3]  4.9735878587998550e-02
    x[2,15]   findWorstP[3,2]  -7.1711381411388192e-02
    x[2,16]   allocateEach[16]  1
    x[2,16]   findWorstP[1,2]  -2.8699560072815534e-02
    x[2,16]   findWorstP[2,1]  1.9187232734285478e-02
    x[2,16]   findWorstP[2,3]  1.9187232734285478e-02
    x[2,16]   findWorstP[3,2]  -7.1485992051268585e-02
    x[2,17]   allocateEach[17]  1
    x[2,17]   findWorstP[1,2]  -2.5077745752427185e-02
    x[2,17]   findWorstP[2,1]  0.0594622543950362
    x[2,17]   findWorstP[2,3]  0.0594622543950362
    x[2,17]   findWorstP[3,2]  -4.1373973539289129e-02
    x[2,18]   allocateEach[18]  1
    x[2,18]   findWorstP[1,2]  -8.9473983616504840e-02
    x[2,18]   findWorstP[2,1]  8.6796724335504075e-02
    x[2,18]   findWorstP[2,3]  8.6796724335504075e-02
    x[2,18]   findWorstP[3,2]  -0.069720442063665
    x[2,19]   allocateEach[19]  1
    x[2,19]   findWorstP[1,2]  -7.7025182038834947e-02
    x[2,19]   findWorstP[2,1]  2.6174571676122867e-02
    x[2,19]   findWorstP[2,3]  2.6174571676122867e-02
    x[2,19]   findWorstP[3,2]  -5.0389547944073396e-02
    x[3,1]    allocateEach[1]  1
    x[3,1]    findWorstP[1,3]  -8.9255916262135915e-02
    x[3,1]    findWorstP[2,3]  -6.5820732832108228e-03
    x[3,1]    findWorstP[3,1]  3.0472641488170821e-02
    x[3,1]    findWorstP[3,2]  3.0472641488170821e-02
    x[3,2]    allocateEach[2]  1
    x[3,2]    findWorstP[1,3]  -0.0922045661407767
    x[3,2]    findWorstP[2,3]  -4.0526565862656870e-03
    x[3,2]    findWorstP[3,1]  0.0210288272991593
    x[3,2]    findWorstP[3,2]  0.0210288272991593
    x[3,3]    allocateEach[3]  1
    x[3,3]    findWorstP[1,3]  -2.3883115898058253e-02
    x[3,3]    findWorstP[2,3]  -1.1284552391067387e-01
    x[3,3]    findWorstP[3,1]  4.8909491145954654e-03
    x[3,3]    findWorstP[3,2]  4.8909491145954654e-03
    x[3,4]    allocateEach[4]  1
    x[3,4]    findWorstP[1,3]  -6.2120752427184463e-02
    x[3,4]    findWorstP[2,3]  -1.3062131417870818e-01
    x[3,4]    findWorstP[3,1]  6.0554608085467664e-02
    x[3,4]    findWorstP[3,2]  6.0554608085467664e-02
    x[3,5]    allocateEach[5]  1
    x[3,5]    findWorstP[1,3]  -1.6838592233009708e-02
    x[3,5]    findWorstP[2,3]  -5.0756030073506812e-02
    x[3,5]    findWorstP[3,1]  5.3312096646957630e-02
    x[3,5]    findWorstP[3,2]  5.3312096646957630e-02
    x[3,6]    allocateEach[6]  1
    x[3,6]    findWorstP[1,3]  -8.6202973300970862e-02
    x[3,6]    findWorstP[2,3]  -6.6645238827245032e-02
    x[3,6]    findWorstP[3,1]  6.1659015950053728e-02
    x[3,6]    findWorstP[3,2]  6.1659015950053728e-02
    x[3,7]    allocateEach[7]  1
    x[3,7]    findWorstP[1,3]  -6.8160270024271843e-02
    x[3,7]    findWorstP[2,3]  -8.7383660806618413e-02
    x[3,7]    findWorstP[3,1]  4.9225036250122096e-02
    x[3,7]    findWorstP[3,2]  4.9225036250122096e-02
    x[3,8]    allocateEach[8]  1
    x[3,8]    findWorstP[1,3]  -7.5555597694174761e-02
    x[3,8]    findWorstP[2,3]  -1.9452751614075295e-02
    x[3,8]    findWorstP[3,1]  5.6550190454009316e-02
    x[3,8]    findWorstP[3,2]  5.6550190454009316e-02
    x[3,9]    allocateEach[9]  1
    x[3,9]    findWorstP[1,3]  -1.5738774271844660e-03
    x[3,9]    findWorstP[2,3]  -1.0325889488247297e-01
    x[3,9]    findWorstP[3,1]  6.2252541265035363e-02
    x[3,9]    findWorstP[3,2]  6.2252541265035363e-02
    x[3,10]   allocateEach[10]  1
    x[3,10]   findWorstP[1,3]  -7.4664365898058249e-02
    x[3,10]   findWorstP[2,3]  -1.3988652561558457e-02
    x[3,10]   findWorstP[3,1]  4.0216974824008482e-02
    x[3,10]   findWorstP[3,2]  4.0216974824008482e-02
    x[3,11]   allocateEach[11]  1
    x[3,11]   findWorstP[1,3]  -4.6363015776699022e-03
    x[3,11]   findWorstP[2,3]  -3.1820341541127485e-02
    x[3,11]   findWorstP[3,1]  4.3349886929671011e-02
    x[3,11]   findWorstP[3,2]  4.3349886929671011e-02
    x[3,12]   allocateEach[12]  1
    x[3,12]   findWorstP[1,3]  -8.5188486043689310e-02
    x[3,12]   findWorstP[2,3]  -8.4686547975069189e-03
    x[3,12]   findWorstP[3,1]  6.6106699323080637e-02
    x[3,12]   findWorstP[3,2]  6.6106699323080637e-02
    x[3,13]   allocateEach[13]  1
    x[3,13]   findWorstP[1,3]  -1.9910497572815531e-04
    x[3,13]   findWorstP[2,3]  -2.4511585007965568e-02
    x[3,13]   findWorstP[3,1]  7.1711381411388192e-02
    x[3,13]   findWorstP[3,2]  7.1711381411388192e-02
    x[3,14]   allocateEach[14]  1
    x[3,14]   findWorstP[1,3]  -3.2444629854368932e-02
    x[3,14]   findWorstP[2,3]  -0.09126862125828
    x[3,14]   findWorstP[3,1]  7.0231324613269433e-02
    x[3,14]   findWorstP[3,2]  7.0231324613269433e-02
    x[3,15]   allocateEach[15]  1
    x[3,15]   findWorstP[1,3]  -6.2054384101941737e-02
    x[3,15]   findWorstP[2,3]  -4.9735878587998550e-02
    x[3,15]   findWorstP[3,1]  7.1711381411388192e-02
    x[3,15]   findWorstP[3,2]  7.1711381411388192e-02
    x[3,16]   allocateEach[16]  1
    x[3,16]   findWorstP[1,3]  -2.8699560072815534e-02
    x[3,16]   findWorstP[2,3]  -1.9187232734285478e-02
    x[3,16]   findWorstP[3,1]  7.1485992051268585e-02
    x[3,16]   findWorstP[3,2]  7.1485992051268585e-02
    x[3,17]   allocateEach[17]  1
    x[3,17]   findWorstP[1,3]  -2.5077745752427185e-02
    x[3,17]   findWorstP[2,3]  -0.0594622543950362
    x[3,17]   findWorstP[3,1]  4.1373973539289129e-02
    x[3,17]   findWorstP[3,2]  4.1373973539289129e-02
    x[3,18]   allocateEach[18]  1
    x[3,18]   findWorstP[1,3]  -8.9473983616504840e-02
    x[3,18]   findWorstP[2,3]  -8.6796724335504075e-02
    x[3,18]   findWorstP[3,1]  0.069720442063665
    x[3,18]   findWorstP[3,2]  0.069720442063665
    x[3,19]   allocateEach[19]  1
    x[3,19]   findWorstP[1,3]  -7.7025182038834947e-02
    x[3,19]   findWorstP[2,3]  -2.6174571676122867e-02
    x[3,19]   findWorstP[3,1]  5.0389547944073396e-02
    x[3,19]   findWorstP[3,2]  5.0389547944073396e-02
    MARKER    'MARKER'                 'INTEND'
RHS
    RHS1      allocateEach[1]  1
    RHS1      allocateEach[2]  1
    RHS1      allocateEach[3]  1
    RHS1      allocateEach[4]  1
    RHS1      allocateEach[5]  1
    RHS1      allocateEach[6]  1
    RHS1      allocateEach[7]  1
    RHS1      allocateEach[8]  1
    RHS1      allocateEach[9]  1
    RHS1      allocateEach[10]  1
    RHS1      allocateEach[11]  1
    RHS1      allocateEach[12]  1
    RHS1      allocateEach[13]  1
    RHS1      allocateEach[14]  1
    RHS1      allocateEach[15]  1
    RHS1      allocateEach[16]  1
    RHS1      allocateEach[17]  1
    RHS1      allocateEach[18]  1
    RHS1      allocateEach[19]  1
    RHS1      allocateAllCash  1
BOUNDS
 UP BND1      z         1
 MI BND1      cashProportion[1]
 UP BND1      cashProportion[1]  1
 MI BND1      cashProportion[2]
 UP BND1      cashProportion[2]  1
 MI BND1      cashProportion[3]
 UP BND1      cashProportion[3]  1
 BV BND1      x[1,1]  
 BV BND1      x[1,2]  
 BV BND1      x[1,3]  
 BV BND1      x[1,4]  
 BV BND1      x[1,5]  
 BV BND1      x[1,6]  
 BV BND1      x[1,7]  
 BV BND1      x[1,8]  
 BV BND1      x[1,9]  
 BV BND1      x[1,10] 
 BV BND1      x[1,11] 
 BV BND1      x[1,12] 
 BV BND1      x[1,13] 
 BV BND1      x[1,14] 
 BV BND1      x[1,15] 
 BV BND1      x[1,16] 
 BV BND1      x[1,17] 
 BV BND1      x[1,18] 
 BV BND1      x[1,19] 
 BV BND1      x[2,1]  
 BV BND1      x[2,2]  
 BV BND1      x[2,3]  
 BV BND1      x[2,4]  
 BV BND1      x[2,5]  
 BV BND1      x[2,6]  
 BV BND1      x[2,7]  
 BV BND1      x[2,8]  
 BV BND1      x[2,9]  
 BV BND1      x[2,10] 
 BV BND1      x[2,11] 
 BV BND1      x[2,12] 
 BV BND1      x[2,13] 
 BV BND1      x[2,14] 
 BV BND1      x[2,15] 
 BV BND1      x[2,16] 
 BV BND1      x[2,17] 
 BV BND1      x[2,18] 
 BV BND1      x[2,19] 
 BV BND1      x[3,1]  
 BV BND1      x[3,2]  
 BV BND1      x[3,3]  
 BV BND1      x[3,4]  
 BV BND1      x[3,5]  
 BV BND1      x[3,6]  
 BV BND1      x[3,7]  
 BV BND1      x[3,8]  
 BV BND1      x[3,9]  
 BV BND1      x[3,10] 
 BV BND1      x[3,11] 
 BV BND1      x[3,12] 
 BV BND1      x[3,13] 
 BV BND1      x[3,14] 
 BV BND1      x[3,15] 
 BV BND1      x[3,16] 
 BV BND1      x[3,17] 
 BV BND1      x[3,18] 
 BV BND1      x[3,19] 
ENDATA
